&CONTROL
  calculation = 'relax'
  etot_conv_thr =   1.0000000000d-06
  forc_conv_thr =   1.0000000000d-03
  outdir = './out/'
  prefix = '110'
  pseudo_dir = '~/pseudo/al2o3/'
  tprnfor = .true.
  verbosity = 'high'
  nstep = 1000
/
&SYSTEM
  degauss =   2.0000000000d-02
  ecutrho =   5.0000000000d+02
  ecutwfc =   6.0000000000d+01
  ibrav = 0
  nat = 160
  nosym = .true.
  nspin = 2
  ntyp = 2
  vdw_corr = 'dft-d3'
  dftd3_version = 4
  occupations = 'smearing'
  smearing = 'gauss'
  starting_magnetization(1) =   1.0000000000d-01
  starting_magnetization(2) =   1.0000000000d-01
/
&ELECTRONS
  conv_thr =   1.0000000000d-08
  electron_maxstep = 200
  mixing_beta =   4.0000000000d-01
/
&IONS
  ion_dynamics = 'bfgs'
/
ATOMIC_SPECIES
Al      26.981538 Al.GGA_PBE-JTH.UPF
O       15.999400 O.GGA_PBE-JTH.UPF
ATOMIC_POSITIONS (angstrom)
Al   4.828805980000   7.285732020000   2.672219540000  0 0 0
Al   7.699793170000   7.285733250000   2.672218380000  0 0 0
Al  13.181205920000   7.285733650000   2.672217920000  0 0 0
Al  16.052194160000   7.285732460000   2.672218450000  0 0 0
Al   4.828806100000  15.326984300000   2.672218800000  0 0 0
Al   7.699792850000  15.326984990000   2.672218080000  0 0 0
Al  13.181206430000  15.326985010000   2.672214290000  0 0 0
Al  16.052194060000  15.326984180000   2.672214770000  0 0 0
Al   2.088101250000   7.258339920000   2.677378280000  0 0 0
Al  10.440498630000   7.258340070000   2.677376300000  0 0 0
Al   2.088101290000  15.299591590000   2.677378640000  0 0 0
Al  10.440498490000  15.299591810000   2.677375950000  0 0 0
Al   6.264300450000   4.874891800000   2.917916600000  0 0 0
Al  14.616698940000   4.874892120000   2.917914400000  0 0 0
Al   6.264300400000  12.916142000000   2.917915840000  0 0 0
Al  14.616699480000  12.916141850000   2.917912210000  0 0 0
Al   9.007603000000   5.095512670000   3.420157150000  0 0 0
Al  11.873395680000   5.095511910000   3.420153460000  0 0 0
Al   0.655203240000  13.136762200000   3.420155230000  0 0 0
Al   3.520997060000  13.136763080000   3.420160960000  0 0 0
Al   9.007603030000  13.136763290000   3.420158500000  0 0 0
Al   3.520997080000   5.095512430000   3.420160580000  0 0 0
Al  11.873396300000  13.136762500000   3.420152910000  0 0 0
Al   0.655203490000   5.095511720000   3.420156770000  0 0 0
Al  14.616703090000   1.596433520000   2.202053850000  0 0 0
Al   6.264296330000   9.637682700000   2.202056160000  0 0 0
Al  14.616703810000   9.637682150000   2.202053280000  0 0 0
Al   6.264296910000   1.596433630000   2.202055440000  0 0 0
Al  10.440497700000   2.076341400000   2.976093420000  0 0 0
Al   2.088101580000   2.076341400000   2.976097230000  0 0 0
Al   2.088102080000  10.117590430000   2.976096160000  0 0 0
Al  10.440497480000  10.117590420000   2.976094950000  0 0 0
Al   6.264301480000  14.064595090000   5.309330040000  1 1 1
Al   6.264302150000   6.023343710000   5.309329500000  1 1 1
Al  14.616697470000   6.023343540000   5.309327490000  1 1 1
Al  14.616697780000  14.064595120000   5.309325760000  1 1 1
Al   2.088096560000  14.544504730000   6.083365580000  1 1 1
Al  10.440502730000  14.544504480000   6.083364120000  1 1 1
Al   2.088095540000   6.503254500000   6.083363050000  1 1 1
Al  10.440503740000   6.503254090000   6.083360500000  1 1 1
Al  13.183802720000   3.004172400000   4.865260450000  1 1 1
Al   7.697196840000  11.045423270000   4.865265140000  1 1 1
Al   7.697196730000   3.004172250000   4.865262820000  1 1 1
Al  16.049596220000   3.004173280000   4.865265530000  1 1 1
Al  13.183802410000  11.045423310000   4.865261430000  1 1 1
Al  16.049596160000  11.045423820000   4.865264870000  1 1 1
Al   4.831403590000   3.004173060000   4.865267970000  1 1 1
Al   4.831403710000  11.045423760000   4.865268310000  1 1 1
Al  10.440499530000   3.224794220000   5.367506690000  1 1 1
Al   2.088100490000  11.266044780000   5.367509120000  1 1 1
Al   2.088100270000   3.224794250000   5.367510090000  1 1 1
Al  10.440499180000  11.266045110000   5.367507960000  1 1 1
Al   6.264301100000   8.882593030000   5.608044990000  1 1 1
Al  14.616698440000   0.841344020000   5.608041830000  1 1 1
Al  14.616698390000   8.882592900000   5.608042990000  1 1 1
Al   6.264301140000   0.841343810000   5.608044120000  1 1 1
Al  11.875993510000   8.855205270000   5.613208900000  1 1 1
Al  11.875993780000   0.813954270000   5.613204720000  1 1 1
Al   0.652605750000   8.855204880000   5.613209460000  1 1 1
Al   3.523593320000   8.855203470000   5.613209510000  1 1 1
Al   9.005006660000   0.813953940000   5.613206310000  1 1 1
Al   0.652605320000   0.813954550000   5.613208330000  1 1 1
Al   9.005006790000   8.855204160000   5.613209880000  1 1 1
Al   3.523593470000   0.813953890000   5.613208860000  1 1 1
O    7.633066640000   0.683849210000   1.750464440000  0 0 0
O    4.895524240000   0.683851340000   1.750468260000  0 0 0
O   15.985478220000   0.683853390000   1.750466560000  0 0 0
O   13.247930360000   0.683851840000   1.750463830000  0 0 0
O    7.633066100000   8.725101430000   1.750465180000  0 0 0
O    4.895524760000   8.725102130000   1.750468330000  0 0 0
O   15.985478430000   8.725103650000   1.750467960000  0 0 0
O   13.247931550000   8.725102290000   1.750464950000  0 0 0
O    2.088106850000   0.750876550000   1.891863960000  0 0 0
O   10.440492790000   0.750876330000   1.891859710000  0 0 0
O    2.088107380000   8.792127890000   1.891863350000  0 0 0
O   10.440493200000   8.792128190000   1.891861320000  0 0 0
O    2.088101300000   5.435659370000   2.349837300000  0 0 0
O   10.440498420000   5.435660370000   2.349833470000  0 0 0
O    2.088101690000  13.476909880000   2.349837180000  0 0 0
O   10.440498170000  13.476910580000   2.349834660000  0 0 0
O   16.075646630000   5.510553720000   2.124783190000  0 0 0
O    7.723246890000   5.510554140000   2.124783650000  0 0 0
O   13.157752630000   5.510554990000   2.124781380000  0 0 0
O    7.723247220000  13.551804250000   2.124784120000  0 0 0
O    4.805352610000  13.551803510000   2.124785600000  0 0 0
O   16.075646990000  13.551803460000   2.124780800000  0 0 0
O   13.157752740000  13.551804320000   2.124779940000  0 0 0
O    4.805352720000   5.510553040000   2.124785400000  0 0 0
O   11.825167630000   6.981294300000   3.753614920000  0 0 0
O    3.472768640000   6.981293910000   3.753618960000  0 0 0
O    9.055831040000   6.981294380000   3.753616610000  0 0 0
O    3.472768680000  15.022544270000   3.753619650000  0 0 0
O    0.703431100000  15.022543850000   3.753615730000  0 0 0
O    0.703432150000   6.981293860000   3.753616720000  0 0 0
O   11.825168640000  15.022544740000   3.753613380000  0 0 0
O    9.055831150000  15.022544900000   3.753617450000  0 0 0
O    6.264300210000   6.918287230000   3.685957740000  0 0 0
O   14.616699570000   6.918287550000   3.685955690000  0 0 0
O    6.264299890000  14.959537000000   3.685957890000  0 0 0
O   14.616699890000  14.959537150000   3.685953200000  0 0 0
O   14.616698200000   3.090110810000   3.129252420000  0 0 0
O    6.264300760000  11.131361470000   3.129255530000  0 0 0
O    6.264301230000   3.090110400000   3.129254810000  0 0 0
O   14.616698870000  11.131361300000   3.129251820000  0 0 0
O    9.156788320000   3.245745400000   3.589379310000  0 0 0
O    0.804389130000   3.245744850000   3.589381170000  0 0 0
O    3.371812010000  11.286995690000   3.589384060000  0 0 0
O    3.371811750000   3.245745280000   3.589384060000  0 0 0
O    0.804389520000  11.286995290000   3.589380800000  0 0 0
O   11.724209440000   3.245745090000   3.589377350000  0 0 0
O   11.724209320000  11.286995660000   3.589378700000  0 0 0
O    9.156788370000  11.286995960000   3.589381720000  0 0 0
O    7.548010750000  12.895190230000   4.696042000000  1 1 1
O    4.980590270000  12.895190450000   4.696044240000  1 1 1
O   15.900409610000   4.853940370000   4.696041210000  1 1 1
O    4.980590830000   4.853940180000   4.696043890000  1 1 1
O   13.332988080000   4.853940010000   4.696038080000  1 1 1
O   15.900409730000  12.895190480000   4.696039230000  1 1 1
O   13.332987950000  12.895190370000   4.696037390000  1 1 1
O    7.548010870000   4.853939730000   4.696041210000  1 1 1
O   10.440499160000   5.009574840000   5.156164900000  1 1 1
O    2.088100260000   5.009574760000   5.156168470000  1 1 1
O    2.088101530000  13.050824920000   5.156168100000  1 1 1
O   10.440497960000  13.050825220000   5.156165880000  1 1 1
O   10.440499580000   1.181400410000   4.599466680000  1 1 1
O    2.088099860000   9.222650850000   4.599470230000  1 1 1
O    2.088099760000   1.181400220000   4.599470820000  1 1 1
O   10.440499570000   9.222651520000   4.599469050000  1 1 1
O   13.232029880000   1.118390620000   4.531803030000  1 1 1
O    4.879629970000   1.118390190000   4.531808810000  1 1 1
O    4.879630390000   9.159641150000   4.531808580000  1 1 1
O   16.001369490000   1.118390960000   4.531806530000  1 1 1
O    7.648970010000   1.118389780000   4.531805400000  1 1 1
O   16.001369220000   9.159641390000   4.531806690000  1 1 1
O   13.232029110000   9.159641470000   4.531804590000  1 1 1
O    7.648970580000   9.159641230000   4.531806950000  1 1 1
O   11.899447820000  10.630386100000   6.160639180000  1 1 1
O    3.547047610000   2.589132820000   6.160642310000  1 1 1
O    8.981551970000  10.630384990000   6.160641420000  1 1 1
O   11.899447780000   2.589133420000   6.160637230000  1 1 1
O    8.981551960000   2.589133210000   6.160638560000  1 1 1
O    0.629152060000   2.589133520000   6.160641300000  1 1 1
O    0.629152150000  10.630385360000   6.160640820000  1 1 1
O    3.547047360000  10.630383950000   6.160642370000  1 1 1
O   14.616698140000   2.664024650000   5.935583960000  1 1 1
O    6.264301110000  10.705274920000   5.935587100000  1 1 1
O    6.264301550000   2.664024040000   5.935586060000  1 1 1
O   14.616698430000  10.705275720000   5.935583420000  1 1 1
O   14.616692260000   7.348808540000   6.393560870000  1 1 1
O   14.616693170000  15.390057460000   6.393558730000  1 1 1
O    6.264306530000  15.390057990000   6.393563100000  1 1 1
O    6.264306720000   7.348808830000   6.393563170000  1 1 1
O    9.071734210000  15.457085990000   6.534958670000  1 1 1
O    0.719321380000   7.415834050000   6.534955240000  1 1 1
O    9.071733720000   7.415835750000   6.534957200000  1 1 1
O    0.719322180000  15.457081800000   6.534955360000  1 1 1
O   11.809274940000   7.415835520000   6.534955480000  1 1 1
O    3.456868360000   7.415834560000   6.534956760000  1 1 1
O   11.809274880000  15.457083470000   6.534953980000  1 1 1
O    3.456868070000  15.457083870000   6.534958660000  1 1 1
K_POINTS gamma
CELL_PARAMETERS angstrom
 16.704799652100   0.000000000000   0.000000000000
  0.000000000000  16.082500457800   0.000000000000
  0.000000000000   0.000000000000  19.285400390600
